NAME: tsp_30
COMMENT: Random TSP instance
TYPE: TSP
DIMENSION: 50
EDGE_WEIGHT_TYPE: EUC_2D
NODE_COORD_SECTION
1 688 856
2 637 590
3 296 672
4 949 394
5 368 269
6 70 400
7 530 624
8 441 293
9 441 864
10 819 500
11 383 803
12 669 49
13 559 58
14 233 173
15 275 314
16 708 48
17 360 958
18 938 92
19 5 907
20 630 354
21 629 973
22 931 423
23 438 534
24 619 41
25 501 616
26 974 516
27 485 627
28 199 994
29 315 435
30 569 186
31 618 469
32 595 631
33 629 33
34 341 683
35 951 320
36 727 406
37 397 389
38 92 474
39 754 22
40 699 672
41 716 139
42 373 472
43 734 920
44 502 837
45 144 433
46 111 491
47 818 488
48 731 985
49 61 203
50 929 696
